\ Model Food_Bank
\ LP format - for model browsing. Use MPS format to capture full model detail.
Minimize
  1.533 dt_1_1_1 + 1.533 dt_1_1_2 + 1.533 dt_1_2_1 + 1.533 dt_1_2_2
   + 1.533 dt_1_3_1 + 1.533 dt_1_3_2 + 1.533 dt_1_4_1 + 1.533 dt_1_4_2 + [
   0.114848 aFP_1_1 * fFP_1_1 + 0.114848 aFP_1_2 * fFP_1_2
   + 0.114848 aFP_1_3 * fFP_1_3 + 0.114848 aFP_1_4 * fFP_1_4
   + 376.81504 nT_1_1 * fFP_1_1 + 477.97344 nT_1_2 * fFP_1_2
   + 647.41376 nT_1_3 * fFP_1_3 + 854.7884799999999 nT_1_4 * fFP_1_4
   + 0.34966 dt_1_1 * dt_1_1_1 + 0.34966 dt_1_2 * dt_1_1_2
   + 0.34966 dt_2_1 * dt_1_2_1 + 0.34966 dt_2_2 * dt_1_2_2
   + 0.34966 dt_3_1 * dt_1_3_1 + 0.34966 dt_3_2 * dt_1_3_2
   + 0.34966 dt_4_1 * dt_1_4_1 + 0.34966 dt_4_2 * dt_1_4_2 ] / 2 
Subject To
 F1_sendsFood_Pj: x_1_1 + x_1_2 + x_1_3 + x_1_4 >= 1
 P1_receiveFood_Fi: x_1_1 <= 1
 P2_receiveFood_Fi: x_1_2 <= 1
 P3_receiveFood_Fi: x_1_3 <= 1
 P4_receiveFood_Fi: x_1_4 <= 1
 P1_sendsFood_Zk: y_1_1 + y_1_2 <= 1
 P2_sendsFood_Zk: y_2_1 + y_2_2 <= 1
 P3_sendsFood_Zk: y_3_1 + y_3_2 <= 1
 P4_sendsFood_Zk: y_4_1 + y_4_2 <= 1
 Z1_receiveFood_Pj: y_1_1 + y_2_1 + y_3_1 + y_4_1 >= 1
 Z2_receiveFood_Pj: y_1_2 + y_2_2 + y_3_2 + y_4_2 >= 1
 R11: - 24000 y_1_1 + dt_1_1 <= 0
 R12: - 24000 y_1_2 + dt_1_2 <= 0
 R13: - 24000 y_2_1 + dt_2_1 <= 0
 R14: - 24000 y_2_2 + dt_2_2 <= 0
 R15: - 24000 y_3_1 + dt_3_1 <= 0
 R16: - 24000 y_3_2 + dt_3_2 <= 0
 R17: - 24000 y_4_1 + dt_4_1 <= 0
 R18: - 24000 y_4_2 + dt_4_2 <= 0
 R19: - 97460 x_1_1 + aFP_1_1 <= 0
 R20: - 86405 x_1_2 + aFP_1_2 <= 0
 R21: - 75591 x_1_3 + aFP_1_3 <= 0
 R22: - 69098 x_1_4 + aFP_1_4 <= 0
 R23: aFP_1_1 + aFP_1_2 + aFP_1_3 + aFP_1_4 <= 3.8920713e+09
 R24: aFP_1_1 - aPZ_1_1 - aPZ_1_2 = 0
 R25: aFP_1_2 - aPZ_2_1 - aPZ_2_2 = 0
 R26: aFP_1_3 - aPZ_3_1 - aPZ_3_2 = 0
 R27: aFP_1_4 - aPZ_4_1 - aPZ_4_2 = 0
 R28: - 1.2738844300000001e+08 y_1_1 + aPZ_1_1 <= 0
 R29: - 1.2738844300000001e+08 y_1_2 + aPZ_1_2 <= 0
 R30: - 1.2738844300000001e+08 y_2_1 + aPZ_2_1 <= 0
 R31: - 1.2738844300000001e+08 y_2_2 + aPZ_2_2 <= 0
 R32: - 1.2738844300000001e+08 y_3_1 + aPZ_3_1 <= 0
 R33: - 1.2738844300000001e+08 y_3_2 + aPZ_3_2 <= 0
 R34: - 1.2738844300000001e+08 y_4_1 + aPZ_4_1 <= 0
 R35: - 1.2738844300000001e+08 y_4_2 + aPZ_4_2 <= 0
 R36: - 24000 x_1_1 + ort_1_1 <= 0
 R37: - 24000 x_1_2 + ort_1_2 <= 0
 R38: - 24000 x_1_3 + ort_1_3 <= 0
 R39: - 24000 x_1_4 + ort_1_4 <= 0
 R40: - aFP_1_1 + 10000 nT_1_1 >= 0
 R41: - aFP_1_2 + 10000 nT_1_2 >= 0
 R42: - aFP_1_3 + 10000 nT_1_3 >= 0
 R43: - aFP_1_4 + 10000 nT_1_4 >= 0
 R44: nT_1_1 + nT_1_2 + nT_1_3 + nT_1_4 <= 400
 R45: - 24000 nT_1_1 + fFP_1_1 <= 0
 R46: - 24000 nT_1_2 + fFP_1_2 <= 0
 R47: - 24000 nT_1_3 + fFP_1_3 <= 0
 R48: - 24000 nT_1_4 + fFP_1_4 <= 0
 R49: - 0.0008 aFP_1_1 + ut_1_1 = 0
 R50: - 0.0008 aFP_1_2 + ut_1_2 = 0
 R51: - 0.0008 aFP_1_3 + ut_1_3 = 0
 R52: - 0.0008 aFP_1_4 + ut_1_4 = 0
 R53: 1.192 x_1_1 - ort_1_1 + opt_1_1 <= 0
 R54: 1.512 x_1_2 - ort_1_2 + opt_1_2 <= 0
 R55: 2.048 x_1_3 - ort_1_3 + opt_1_3 <= 0
 R56: 2.704 x_1_4 - ort_1_4 + opt_1_4 <= 0
 R57: - 2.709677419354839 y_1_1 - 3.32258064516129 y_1_2 + opt_1_1 - ut_1_1
   >= 0
 R58: - 4.354838709677419 y_2_1 - 5.258064516129032 y_2_2 + opt_1_2
   - ut_1_2 >= 0
 R59: - 6.161290322580645 y_3_1 - 6.774193548387097 y_3_2 + opt_1_3
   - ut_1_3 >= 0
 R60: - 10.74193548387097 y_4_1 - 10.41935483870968 y_4_2 + opt_1_4
   - ut_1_4 >= 0
 R61: - 24000 x_1_1 + opt_1_1 <= 0
 R62: - 24000 x_1_2 + opt_1_2 <= 0
 R63: - 24000 x_1_3 + opt_1_3 <= 0
 R64: - 24000 x_1_4 + opt_1_4 <= 0
 qc0: - aPZ_1_1 - 936.9094583333335 dt_1_1 + [
   936.9094583333335 y_1_1 * ort_1_1 ] = 0
 qc1: - aPZ_1_2 - 586.2588333333334 dt_1_2 + [
   586.2588333333334 y_1_2 * ort_1_1 ] = 0
 qc2: - aPZ_2_1 - 936.9094583333335 dt_2_1 + [
   936.9094583333335 y_2_1 * ort_1_2 ] = 0
 qc3: - aPZ_2_2 - 586.2588333333334 dt_2_2 + [
   586.2588333333334 y_2_2 * ort_1_2 ] = 0
 qc4: - aPZ_3_1 - 936.9094583333335 dt_3_1 + [
   936.9094583333335 y_3_1 * ort_1_3 ] = 0
 qc5: - aPZ_3_2 - 586.2588333333334 dt_3_2 + [
   586.2588333333334 y_3_2 * ort_1_3 ] = 0
 qc6: - aPZ_4_1 - 936.9094583333335 dt_4_1 + [
   936.9094583333335 y_4_1 * ort_1_4 ] = 0
 qc7: - aPZ_4_2 - 586.2588333333334 dt_4_2 + [
   586.2588333333334 y_4_2 * ort_1_4 ] = 0
 qc8: - 2.709677419354839 y_1_1 + dt_1_1 + [ - y_1_1 * ut_1_1 ] >= 0
 qc9: - 3.32258064516129 y_1_2 + dt_1_2 + [ - y_1_2 * ut_1_1 ] >= 0
 qc10: - 4.354838709677419 y_2_1 + dt_2_1 + [ - y_2_1 * ut_1_2 ] >= 0
 qc11: - 5.258064516129032 y_2_2 + dt_2_2 + [ - y_2_2 * ut_1_2 ] >= 0
 qc12: - 6.161290322580645 y_3_1 + dt_3_1 + [ - y_3_1 * ut_1_3 ] >= 0
 qc13: - 6.774193548387097 y_3_2 + dt_3_2 + [ - y_3_2 * ut_1_3 ] >= 0
 qc14: - 10.74193548387097 y_4_1 + dt_4_1 + [ - y_4_1 * ut_1_4 ] >= 0
 qc15: - 10.41935483870968 y_4_2 + dt_4_2 + [ - y_4_2 * ut_1_4 ] >= 0
 qc16: aPZ_1_1 + aPZ_2_1 + aPZ_3_1 + aPZ_4_1 + [
   - 936.9094583333335 y_1_1 * ort_1_1 ] >= 0
 qc17: aPZ_1_2 + aPZ_2_2 + aPZ_3_2 + aPZ_4_2 + [
   - 586.2588333333334 y_1_2 * ort_1_1 ] >= 0
 qc18: aPZ_1_1 + aPZ_2_1 + aPZ_3_1 + aPZ_4_1 + [
   - 936.9094583333335 y_2_1 * ort_1_2 ] >= 0
 qc19: aPZ_1_2 + aPZ_2_2 + aPZ_3_2 + aPZ_4_2 + [
   - 586.2588333333334 y_2_2 * ort_1_2 ] >= 0
 qc20: aPZ_1_1 + aPZ_2_1 + aPZ_3_1 + aPZ_4_1 + [
   - 936.9094583333335 y_3_1 * ort_1_3 ] >= 0
 qc21: aPZ_1_2 + aPZ_2_2 + aPZ_3_2 + aPZ_4_2 + [
   - 586.2588333333334 y_3_2 * ort_1_3 ] >= 0
 qc22: aPZ_1_1 + aPZ_2_1 + aPZ_3_1 + aPZ_4_1 + [
   - 936.9094583333335 y_4_1 * ort_1_4 ] >= 0
 qc23: aPZ_1_2 + aPZ_2_2 + aPZ_3_2 + aPZ_4_2 + [
   - 586.2588333333334 y_4_2 * ort_1_4 ] >= 0
 qc24: - 240 x_1_1 + [ ort_1_1 * fFP_1_1 ] >= 0
 qc25: - 240 x_1_2 + [ ort_1_2 * fFP_1_2 ] >= 0
 qc26: - 240 x_1_3 + [ ort_1_3 * fFP_1_3 ] >= 0
 qc27: - 240 x_1_4 + [ ort_1_4 * fFP_1_4 ] >= 0
 qc28: dt_1_1_1 + [ - dt_1_1 * fFP_1_1 ] = 0
 qc29: dt_1_1_2 + [ - dt_1_2 * fFP_1_1 ] = 0
 qc30: dt_1_2_1 + [ - dt_2_1 * fFP_1_2 ] = 0
 qc31: dt_1_2_2 + [ - dt_2_2 * fFP_1_2 ] = 0
 qc32: dt_1_3_1 + [ - dt_3_1 * fFP_1_3 ] = 0
 qc33: dt_1_3_2 + [ - dt_3_2 * fFP_1_3 ] = 0
 qc34: dt_1_4_1 + [ - dt_4_1 * fFP_1_4 ] = 0
 qc35: dt_1_4_2 + [ - dt_4_2 * fFP_1_4 ] = 0
Bounds
Binaries
 x_1_1 x_1_2 x_1_3 x_1_4 y_1_1 y_1_2 y_2_1 y_2_2 y_3_1 y_3_2 y_4_1 y_4_2
Generals
 nT_1_1 nT_1_2 nT_1_3 nT_1_4 fFP_1_1 fFP_1_2 fFP_1_3 fFP_1_4
End
